
Gurobi 10.0.1 (linux64) logging started Sun Nov 26 15:56:42 2023

Set parameter LogFile to value "ArtificialInstance/ExperimentV2/S4T4K3/AdRo/gurobiDoRo16.txt"
Gurobi Optimizer version 10.0.1 build v10.0.1rc0 (linux64)

CPU model: AMD EPYC 7H12 64-Core Processor, instruction set [SSE2|AVX|AVX2]
Thread count: 128 physical cores, 128 logical processors, using up to 32 threads

Academic license 656792 - for non-commercial use only - registered to b.___@student.vu.nl
Optimize a model with 21704 rows, 20431 columns and 79490 nonzeros
Model fingerprint: 0x24670f8b
Variable types: 1 continuous, 20430 integer (20430 binary)
Coefficient statistics:
  Matrix range     [1e+00, 4e+01]
  Objective range  [1e+00, 2e+01]
  Bounds range     [1e+00, 1e+00]
  RHS range        [1e+00, 1e+00]
Presolve removed 9119 rows and 8643 columns
Presolve time: 0.32s
Presolved: 12585 rows, 11788 columns, 45824 nonzeros
Variable types: 1 continuous, 11787 integer (11787 binary)
Found heuristic solution: objective 115.0990959

Root relaxation: objective 1.079275e+02, 4536 iterations, 0.24 seconds (0.15 work units)

    Nodes    |    Current Node    |     Objective Bounds      |     Work
 Expl Unexpl |  Obj  Depth IntInf | Incumbent    BestBd   Gap | It/Node Time

     0     0  107.92748    0  140  115.09910  107.92748  6.23%     -    0s
H    0     0                     107.9274807  107.92748  0.00%     -    0s
     0     0  107.92748    0  140  107.92748  107.92748  0.00%     -    0s

Explored 1 nodes (8486 simplex iterations) in 0.82 seconds (0.57 work units)
Thread count was 32 (of 128 available processors)

Solution count 2: 107.927 115.099 

Optimal solution found (tolerance 1.00e-04)
Best objective 1.079274807003e+02, best bound 1.079274807003e+02, gap 0.0000%
